15 107
13 15
6 51
1 45
4 10
12 41
4 15
8 40
10 10
4 46
6 44
3 39
5 13
8 44
7 52
9 23
9 49
13 31
11 19
2 10
7 20
8 53
8 33
9 12
2 44
6 45
10 40
14 13
9 28
10 56
5 45
4 30
1 27
4 37
6 24
1 51
3 11
4 46
9 20
2 32
4 53
14 50
4 21
4 12
8 26
1 42
2 10
10 48
10 29
1 56
11 52
5 50
8 23
4 40
12 34
3 12
8 13
13 40
3 44
1 53
1 23
5 50
6 18
6 29
7 41
9 18
5 36
2 12
5 13
10 54
11 24
11 42
9 14
2 13
2 55
8 21
10 32
10 23
4 55
7 21
8 26
12 34
3 39
12 31
1 56
4 35
6 26
13 29
10 43
11 50
5 42
12 46
5 16
7 31
5 41
5 23
4 17
13 34
5 25
5 51
9 28
5 50
4 25
11 21
8 48
14 39
6 11
6 41
